Problem:    marketing
Rows:       12
Columns:    10 (10 integer, 0 binary)
Non-zeros:  57
Status:     INTEGER OPTIMAL
Objective:  z = 1737650 (MAXimum)

   No.   Row name        Activity     Lower bound   Upper bound
------ ------------    ------------- ------------- -------------
     1 consumi1[1]             35670                       37000 
     2 consumi1[2]             31644                       32000 
     3 consumi2[1]             39993                       40000 
     4 consumi2[2]             46997                       47000 
     5 def_intervallo[1,1]
                                 200                         200 
     6 def_intervallo[1,2]
                                 301                         301 
     7 def_intervallo[2,1]
                                 150                         150 
     8 def_intervallo[2,2]
                                 451                         451 
     9 def_intervallo[3,1]
                                  50                          50 
    10 def_intervallo[3,2]
                                 100                         100 
    11 def_intervallo[3,3]
                                 151                         151 
    12 z                1.73765e+006                             

   No. Column name       Activity     Lower bound   Upper bound
------ ------------    ------------- ------------- -------------
     1 x[1,1]       *            200             0               
     2 x[1,2]       *            301             0               
     3 x[1,3]       *            602             0               
     4 x[2,1]       *            150             0               
     5 x[2,2]       *            451             0               
     6 x[2,3]       *              0             0               
     7 x[3,1]       *             50             0               
     8 x[3,2]       *            100             0               
     9 x[3,3]       *            151             0               
    10 x[3,4]       *            416             0               

Integer feasibility conditions:

KKT.PE: max.abs.err = 0.00e+000 on row 0
        max.rel.err = 0.00e+000 on row 0
        High quality

KKT.PB: max.abs.err = 0.00e+000 on row 0
        max.rel.err = 0.00e+000 on row 0
        High quality

End of output
